Traveling Salesman Problem/TSP_generados/Aleatorio1621103455_14.tsp
NAME: Aleatorio1621103455_14.tsp
COMMENT: Randomly generated scenario
TYPE: TSP
DIMENSION: 14
EDGE_WEIGHT_TYPE: ATT
NODE_COORD_SECTION
1 36.55 27.45
2 44.38 41.37
3 36.14 33.19
4 31.04 32.3
5 31.11 48.81
6 25.44 31.77
7 43.79 0.24
8 38.94 5.26
9 44.46 12.93
10 34.96 17.27
11 5.52 2.1
12 22.47 27.35
13 49.32 34.93
14 48.08 26.12
