Traveling Salesman Problem/TSP_generados/Aleatorio1621103455_14.opt.tour
NAME: Aleatorio1621103455_14.opt.tour
COMMENT: Optimal solution for Aleatorio1621103455_14 (180.7866426001444)
TYPE: TOUR
DIMENSION: 14
TOUR_SECTION
1 10 9 7 8 11 12 6 4 3 5 2 13 14
-1
EOF
